
===== New CPLEX run =====
Instance: /home/yorig/tuner/mpils-tests/instances/miplib/easy/supportcase33.mps
Config: /scratch/yorig/mpils-results-grid-seconds-5-watchdog-mip-start/easy/8proc/seed-4/10_supportcase33_seed-4_20260504_032501/expansion/config_param_CPXPARAM_Emphasis_Numerical_1_iter_4.prm
========================

Selected objective sense:  MINIMIZE
Selected objective  name:  obj
Selected RHS        name:  rhs
Selected bound      name:  bnd
Wall watchdog: enabled factor=1 grace=1 limit=6 seconds
Version identifier: 22.1.2.0 | 2024-11-26 | 0edbb82fd
CPXPARAM_Threads                                 8
CPXPARAM_Emphasis_Numerical                      1
CPXPARAM_Parallel                                1
CPXPARAM_MIP_Cuts_Cliques                        3
CPXPARAM_MIP_Cuts_Covers                         2
CPXPARAM_MIP_Cuts_Implied                        -1
CPXPARAM_MIP_Cuts_GUBCovers                      -1
CPXPARAM_MIP_Limits_GomoryCand                   800
CPXPARAM_MIP_Cuts_Gomory                         2
CPXPARAM_MIP_Cuts_PathCut                        -1
CPXPARAM_MIP_Cuts_MIRCut                         2
CPXPARAM_MIP_Cuts_Disjunctive                    3
CPXPARAM_Emphasis_MIP                            4
CPXPARAM_TimeLimit                               5
Found incumbent of value 0.000000 after 0.00 sec. (2.20 ticks)
Tried aggregator 2 times.
MIP Presolve eliminated 17556 rows and 13423 columns.
MIP Presolve modified 14568 coefficients.
Aggregator did 11 substitutions.
Reduced MIP has 2922 rows, 6763 columns, and 53605 nonzeros.
Reduced MIP has 6683 binaries, 80 generals, 0 SOSs, and 0 indicators.
Presolve time = 0.09 sec. (158.17 ticks)
Probing fixed 667 vars, tightened 0 bounds.
Probing changed sense of 39 constraints.
Probing time = 0.17 sec. (249.39 ticks)
Tried aggregator 2 times.
Detecting symmetries...
MIP Presolve eliminated 639 rows and 667 columns.
MIP Presolve modified 197 coefficients.
Aggregator did 7 substitutions.
Reduced MIP has 2276 rows, 6089 columns, and 46722 nonzeros.
Reduced MIP has 6009 binaries, 80 generals, 0 SOSs, and 0 indicators.
Presolve time = 0.03 sec. (37.79 ticks)
Probing fixed 1 vars, tightened 0 bounds.
Probing time = 0.03 sec. (37.88 ticks)
Clique table members: 25145.
MIP emphasis: hidden feasible solutions.
MIP search method: dynamic search.
Parallel mode: deterministic, using up to 8 threads.
Root relaxation solution time = 0.06 sec. (112.37 ticks)

        Nodes                                         Cuts/
   Node  Left     Objective  IInf  Best Integer    Best Bound    ItCnt     Gap

*     0+    0                            0.0000    -1075.0000              --- 
      0     0     -462.8425   124        0.0000     -462.8425     1415     --- 
*     0+    0                          -35.0000     -462.8425              --- 
      0     0     -445.6250   155      -35.0000     Cuts: 149     1704     --- 
      0     0     -440.0000   133      -35.0000      Cuts: 76     1895     --- 
      0     0     -440.0000   132      -35.0000      Cuts: 93     2093     --- 
*     0+    0                          -50.0000     -440.0000           780.00%
*     0+    0                         -170.0000     -440.0000           158.82%
      0     0     -440.0000    92     -170.0000      Cuts: 19     2246  158.82%
*     0+    0                         -210.0000     -440.0000           109.52%
      0     0     -440.0000   103     -210.0000      Cuts: 61     2520  109.52%
Detecting symmetries...
*     0+    0                         -215.0000     -440.0000           104.65%
Detecting symmetries...
      0     2     -440.0000    93     -215.0000     -440.0000     2520  104.65%
Elapsed time = 1.58 sec. (2452.87 ticks, tree = 0.02 MB, solutions = 5)
*    92+    3                         -270.0000     -440.0000            62.96%
    154    34     -440.0000    95     -270.0000     -440.0000     6468   62.96%
*   487   244      integral     0     -290.0000     -440.0000    16382   51.72%
    588   258     -390.0000    64     -290.0000     -440.0000    20626   51.72%
    800   339     -397.5000    94     -290.0000     -440.0000    27089   51.72%
   1056   443     -348.8468   120     -290.0000     -440.0000    35411   51.72%
   1256   574     -360.0000    61     -290.0000     -440.0000    47303   51.72%
   1511   717        cutoff           -290.0000     -440.0000    61286   51.72%
   1606   791     -377.7888   102     -290.0000     -440.0000    68906   51.72%
   1884   946    infeasible           -290.0000     -420.0000    75513   44.83%
*  1939+  787                         -305.0000     -420.0000            37.70%
   2757  1407     -328.8818    42     -305.0000     -418.9073   112875   37.35%
Elapsed time = 3.66 sec. (5543.33 ticks, tree = 3.55 MB, solutions = 8)
*  3282+ 1685                         -320.0000     -405.0000            26.56%

Performing restart 1

Repeating presolve.
Tried aggregator 1 time.
MIP Presolve eliminated 36 rows and 19 columns.
MIP Presolve modified 24938 coefficients.
Reduced MIP has 2238 rows, 6070 columns, and 33732 nonzeros.
Reduced MIP has 5990 binaries, 80 generals, 0 SOSs, and 0 indicators.
Presolve time = 0.03 sec. (38.70 ticks)
Tried aggregator 1 time.
MIP Presolve eliminated 74 rows and 218 columns.
MIP Presolve modified 2214 coefficients.
Reduced MIP has 2164 rows, 5852 columns, and 31159 nonzeros.
Reduced MIP has 5772 binaries, 80 generals, 0 SOSs, and 0 indicators.
Presolve time = 0.02 sec. (25.90 ticks)
Tried aggregator 2 times.
MIP Presolve eliminated 22 rows and 73 columns.
MIP Presolve modified 52 coefficients.
Aggregator did 1 substitutions.
Reduced MIP has 2141 rows, 5778 columns, and 30852 nonzeros.
Reduced MIP has 5698 binaries, 80 generals, 0 SOSs, and 0 indicators.
Presolve time = 0.02 sec. (25.64 ticks)
Represolve time = 0.66 sec. (706.04 ticks)

Clique cuts applied:  0
Cover cuts applied:  0
Mixed integer rounding cuts applied:  0
Gomory fractional cuts applied:  0
Disjunctive cuts applied:  0
Cone linearizations applied:  0

Root node processing (before b&c):
  Real time             =    1.55 sec. (2433.79 ticks)
Parallel b&c, 8 threads:
  Real time             =    3.45 sec. (4938.04 ticks)
  Sync time (average)   =    0.55 sec.
  Wait time (average)   =    0.00 sec.
                          ------------
Total (root+branch&cut) =    5.00 sec. (7371.83 ticks)
Gap: 26.56%
Upper bound: -320
Lower bound: -405
Termination status: Normal
End of CPLEX run. Time: 5.00475 seconds

===== New CPLEX run =====
Instance: /home/yorig/tuner/mpils-tests/instances/miplib/easy/supportcase33.mps
Config: /scratch/yorig/mpils-results-grid-seconds-5-watchdog-mip-start/easy/8proc/seed-4/10_supportcase33_seed-4_20260504_032501/expansion/config_param_CPXPARAM_Preprocessing_Reduce_0_iter_4.prm
========================

Selected objective sense:  MINIMIZE
Selected objective  name:  obj
Selected RHS        name:  rhs
Selected bound      name:  bnd
Wall watchdog: enabled factor=1 grace=1 limit=6 seconds
Version identifier: 22.1.2.0 | 2024-11-26 | 0edbb82fd
CPXPARAM_Preprocessing_Reduce                    0
CPXPARAM_Threads                                 8
CPXPARAM_Parallel                                1
CPXPARAM_MIP_Cuts_Cliques                        3
CPXPARAM_MIP_Cuts_Covers                         2
CPXPARAM_MIP_Cuts_Implied                        -1
CPXPARAM_MIP_Cuts_GUBCovers                      -1
CPXPARAM_MIP_Limits_GomoryCand                   800
CPXPARAM_MIP_Cuts_Gomory                         2
CPXPARAM_MIP_Cuts_PathCut                        -1
CPXPARAM_MIP_Cuts_MIRCut                         2
CPXPARAM_MIP_Cuts_Disjunctive                    3
CPXPARAM_Emphasis_MIP                            4
CPXPARAM_TimeLimit                               5
Found incumbent of value 0.000000 after 0.00 sec. (2.20 ticks)
Tried aggregator 0 times.
Reduced MIP has 20489 rows, 20203 columns, and 211915 nonzeros.
Reduced MIP has 20095 binaries, 108 generals, 0 SOSs, and 0 indicators.
Presolve time = 0.00 sec. (8.89 ticks)
Probing fixed 4442 vars, tightened 0 bounds.
Probing changed sense of 39 constraints.
Probing time = 0.52 sec. (635.03 ticks)
Cover probing fixed 0 vars, tightened 647 bounds.
Clique table members: 115019.
MIP emphasis: hidden feasible solutions.
MIP search method: dynamic search.
Parallel mode: deterministic, using up to 8 threads.
Root relaxation solution time = 0.19 sec. (319.83 ticks)

        Nodes                                         Cuts/
   Node  Left     Objective  IInf  Best Integer    Best Bound    ItCnt     Gap

*     0+    0                            0.0000    -1075.0000              --- 
      0     0     -521.8929   190        0.0000     -521.8929     2211     --- 
*     0+    0                          -55.0000     -521.8929           848.90%
      0     0     -460.0000    94      -55.0000      Cuts: 55     2866  736.36%
      0     0     -455.0000    93      -55.0000      Cuts: 48     2959  727.27%
      0     0     -455.0000    97      -55.0000      Cuts: 29     3022  727.27%
*     0+    0                          -75.0000     -455.0000           506.67%
*     0+    0                         -110.0000     -455.0000           313.64%
      0     0  -1.00000e+75     0     -110.0000     -455.0000     3022  313.64%
      0     0     -455.0000   109     -110.0000     Covers: 1     3043  313.64%
*     0+    0                         -180.0000     -455.0000           152.78%
      0     0  -1.00000e+75     0     -180.0000     -455.0000     3043  152.78%
      0     2     -455.0000    99     -180.0000     -455.0000     3043  152.78%
Elapsed time = 2.38 sec. (3765.71 ticks, tree = 0.02 MB, solutions = 5)
      3     4     -455.0000    95     -180.0000     -455.0000     3073  152.78%
*     4+    1                         -185.0000     -455.0000           145.95%
     17    12     -455.0000    98     -185.0000     -455.0000     3744  145.95%
*    24+    5                         -190.0000     -455.0000           139.47%
*    34+    7                         -205.0000     -455.0000           121.95%
     34     5     -428.2143    73     -205.0000     -455.0000     4084  121.95%
     59    26     -380.0000    42     -205.0000     -455.0000     5820  121.95%
     81    39     -400.0000    50     -205.0000     -455.0000     7927  121.95%
    137    67     -360.0000    35     -205.0000     -455.0000    11852  121.95%
    223   120     -379.9999    57     -205.0000     -455.0000    14115  121.95%
    292   173     -425.0000    52     -205.0000     -455.0000    15946  121.95%
    317   201    infeasible           -205.0000     -455.0000    17521  121.95%
    546   345     -381.6664    79     -205.0000     -455.0000    22275  121.95%
Elapsed time = 4.44 sec. (6917.80 ticks, tree = 24.57 MB, solutions = 10)
*   775   512      integral     0     -235.0000     -455.0000    25027   93.62%
*   879+  556                         -240.0000     -455.0000            89.58%
*   883+  556                         -265.0000     -455.0000            71.70%
    925   622     -410.0000    70     -265.0000     -454.7778    28056   71.61%

Clique cuts applied:  9
Cover cuts applied:  18
Mixed integer rounding cuts applied:  23
Zero-half cuts applied:  16
Lift and project cuts applied:  1
Gomory fractional cuts applied:  15
Disjunctive cuts applied:  1
Cone linearizations applied:  0

Root node processing (before b&c):
  Real time             =    2.34 sec. (3733.22 ticks)
Parallel b&c, 8 threads:
  Real time             =    2.67 sec. (4180.96 ticks)
  Sync time (average)   =    0.67 sec.
  Wait time (average)   =    0.00 sec.
                          ------------
Total (root+branch&cut) =    5.01 sec. (7914.18 ticks)
Gap: 71.61%
Upper bound: -265
Lower bound: -454.778
Termination status: Normal
End of CPLEX run. Time: 5.01598 seconds

===== New CPLEX run =====
Instance: /home/yorig/tuner/mpils-tests/instances/miplib/easy/supportcase33.mps
Config: /scratch/yorig/mpils-results-grid-seconds-5-watchdog-mip-start/easy/8proc/seed-4/10_supportcase33_seed-4_20260504_032501/expansion/config_param_CPXPARAM_Preprocessing_Reduce_1_iter_4.prm
========================

Selected objective sense:  MINIMIZE
Selected objective  name:  obj
Selected RHS        name:  rhs
Selected bound      name:  bnd
Wall watchdog: enabled factor=1 grace=1 limit=6 seconds
Version identifier: 22.1.2.0 | 2024-11-26 | 0edbb82fd
CPXPARAM_Preprocessing_Reduce                    1
CPXPARAM_Threads                                 8
CPXPARAM_Parallel                                1
CPXPARAM_MIP_Cuts_Cliques                        3
CPXPARAM_MIP_Cuts_Covers                         2
CPXPARAM_MIP_Cuts_Implied                        -1
CPXPARAM_MIP_Cuts_GUBCovers                      -1
CPXPARAM_MIP_Limits_GomoryCand                   800
CPXPARAM_MIP_Cuts_Gomory                         2
CPXPARAM_MIP_Cuts_PathCut                        -1
CPXPARAM_MIP_Cuts_MIRCut                         2
CPXPARAM_MIP_Cuts_Disjunctive                    3
CPXPARAM_Emphasis_MIP                            4
CPXPARAM_TimeLimit                               5
Found incumbent of value 0.000000 after 0.00 sec. (2.20 ticks)
Tried aggregator 2 times.
MIP Presolve eliminated 17450 rows and 13415 columns.
MIP Presolve modified 14567 coefficients.
Aggregator did 4 substitutions.
Reduced MIP has 3035 rows, 6784 columns, and 54238 nonzeros.
Reduced MIP has 6683 binaries, 101 generals, 0 SOSs, and 0 indicators.
Presolve time = 0.08 sec. (141.17 ticks)
Probing fixed 667 vars, tightened 0 bounds.
Probing changed sense of 39 constraints.
Probing time = 0.16 sec. (222.30 ticks)
Tried aggregator 2 times.
MIP Presolve eliminated 617 rows and 667 columns.
Aggregator did 7 substitutions.
Reduced MIP has 2411 rows, 6110 columns, and 47534 nonzeros.
Reduced MIP has 6009 binaries, 101 generals, 0 SOSs, and 0 indicators.
Presolve time = 0.02 sec. (23.17 ticks)
Probing time = 0.01 sec. (13.32 ticks)
Clique table members: 27843.
MIP emphasis: hidden feasible solutions.
MIP search method: dynamic search.
Parallel mode: deterministic, using up to 8 threads.
Root relaxation solution time = 0.05 sec. (108.03 ticks)

        Nodes                                         Cuts/
   Node  Left     Objective  IInf  Best Integer    Best Bound    ItCnt     Gap

*     0+    0                            0.0000    -1075.0000              --- 
      0     0     -462.8425   127        0.0000     -462.8425     1429     --- 
*     0+    0                         -135.0000     -462.8425           242.85%
      0     0     -450.0000   124     -135.0000     Cuts: 128     1649  233.33%
      0     0     -445.0000   107     -135.0000     Cuts: 149     1930  229.63%
      0     0     -440.0000   112     -135.0000     Cuts: 109     2499  225.93%
*     0+    0                         -175.0000     -440.0000           151.43%
*     0+    0                         -205.0000     -440.0000           114.63%
      0     0  -1.00000e+75     0     -205.0000     -440.0000     2499  114.63%
      0     0     -440.0000   112     -205.0000      Cuts: 91     2919  114.63%
      0     0     -440.0000    75     -205.0000      Cuts: 10     2996  114.63%
      0     0     -440.0000   108     -205.0000      Cuts: 66     3745  114.63%
*     0+    0                         -225.0000     -440.0000            95.56%
      0     0  -1.00000e+75     0     -225.0000     -440.0000     3745   95.56%
      0     2     -440.0000    86     -225.0000     -440.0000     3745   95.56%
Elapsed time = 1.98 sec. (2828.77 ticks, tree = 0.02 MB, solutions = 5)
*    31+    4                         -235.0000     -440.0000            87.23%
*    62+    6                         -260.0000     -440.0000            69.23%
     97    54     -333.3333    59     -260.0000     -440.0000    10064   69.23%
    284   156     -312.1296    35     -260.0000     -440.0000    21217   69.23%
*   330   178      integral     0     -265.0000     -440.0000    24677   66.04%
    365   185     -401.2123    60     -265.0000     -440.0000    26896   66.04%
    465   224     -395.0000    58     -265.0000     -440.0000    34830   66.04%
    612   355    infeasible           -265.0000     -440.0000    42684   66.04%
    798   471    infeasible           -265.0000     -440.0000    54687   66.04%
   1010   631     -296.4098    59     -265.0000     -440.0000    65707   66.04%
*  1044   639      integral     0     -270.0000     -440.0000    65854   62.96%
*  1832+  833                         -285.0000     -415.8553            45.91%
   1866  1324     -301.0813    55     -285.0000     -415.8553   108514   45.91%
Elapsed time = 3.72 sec. (5560.93 ticks, tree = 19.14 MB, solutions = 11)
*  1915+ 1080                         -290.0000     -415.8553            43.40%
*  2490  1485      integral     0     -305.0000     -405.0000   139480   32.79%
   2510  1443     -359.5035    51     -305.0000     -405.0000   136042   32.79%
*  2995+ 1459                         -310.0000     -405.0000            30.65%
   3012  1642     -365.0000    49     -310.0000     -405.0000   186245   30.65%

Clique cuts applied:  0
Cover cuts applied:  61
Mixed integer rounding cuts applied:  141
Zero-half cuts applied:  14
Gomory fractional cuts applied:  6
Disjunctive cuts applied:  2
Cone linearizations applied:  0

Root node processing (before b&c):
  Real time             =    1.95 sec. (2804.36 ticks)
Parallel b&c, 8 threads:
  Real time             =    3.06 sec. (4826.52 ticks)
  Sync time (average)   =    0.62 sec.
  Wait time (average)   =    0.00 sec.
                          ------------
Total (root+branch&cut) =    5.01 sec. (7630.88 ticks)
Gap: 30.65%
Upper bound: -310
Lower bound: -405
Termination status: Normal
End of CPLEX run. Time: 5.00916 seconds
